CMD:
./solvers/bin/cadical --plain --no-reduce -t 1600 ./data/cnfs//bc57sensorsp1/bc57sensorsp1.61.cnf

c --- [ banner ] -------------------------------------------------------------
c 
c CaDiCaL SAT Solver
c Copyright (c) 2016-2024
c A. Biere, M. Fleury, N. Froleyks, K. Fazekas, F. Pollitt, T. Faller
c JKU Linz, University of Freiburg, TU Wien
c 
c Version 2.1.3 5296d3d2a9bf48c154ab2acb5e44625776d821bf
c g++ (Gentoo 12.3.1_p20230526 p2) 12.3.1 20230526 -Wall -Wextra -O3 -DNDEBUG
c Sat Aug 9 07:26:21 PDT 2025 Linux cedar2.int.cedar.computecanada.ca 5.14.0-362.24.2.el9_3.x86_64 x86_64
c 
c --- [ limit ] --------------------------------------------------------------
c 
c setting time limit to 1600 seconds real time (due to '-t 1600')
c 
c --- [ parsing input ] ------------------------------------------------------
c 
c reading DIMACS file from './data/cnfs//bc57sensorsp1/bc57sensorsp1.61.cnf'
c opening file to read './data/cnfs//bc57sensorsp1/bc57sensorsp1.61.cnf'
c found 'p cnf 123750 349684' header
c parsed 349684 clauses in 0.06 seconds process time
c 
c --- [ options ] ------------------------------------------------------------
c 
c   --compact=false                (different from default 'true')
c   --decompose=false              (different from default 'true')
c   --deduplicate=false            (different from default 'true')
c   --elim=false                   (different from default 'true')
c   --probe=false                  (different from default 'true')
c   --reduce=false                 (different from default 'true')
c   --subsume=false                (different from default 'true')
c   --ternary=false                (different from default 'true')
c   --transred=false               (different from default 'true')
c   --vivify=false                 (different from default 'true')
c 
c --- [ solving ] ------------------------------------------------------------
c 
c time measured in process time since initialization
c 
c  seconds  reductions  redundant  irredundant
c         MB    restarts       trail       variables
c          level   conflicts       glue         remaining
c 
c *  0.06 58  0 0   0    0    0  0% 0 334777 87034 70%
c {  0.08 60  0 0   0    0    0  0% 0 334777 87034 70%
c i  0.13 60 144 0   1  109  103 56% 1 334777 87027 70%
c i  0.16 60 99 0  16  179  170 53% 2 334777 87019 70%
c i  0.16 60 99 0  16  180  170 52% 2 334777 87012 70%
c i  0.16 60 98 0  16  182  170 52% 2 334777 86998 70%
c i  0.16 60 97 0  16  183  170 52% 2 334777 86987 70%
c i  0.16 60 96 0  16  184  170 52% 2 334777 86980 70%
c i  0.16 60 96 0  16  185  170 52% 2 334777 86973 70%
c i  0.16 60 95 0  17  189  172 51% 2 334777 86966 70%
c i  0.16 60 94 0  18  190  172 51% 2 334777 86957 70%
c i  0.17 60 89 0  22  204  185 51% 2 334777 86900 70%
c i  0.19 60 83 0  27  224  202 50% 2 334777 86891 70%
c i  0.19 60 82 0  27  225  202 50% 2 334777 86883 70%
c i  0.19 60 82 0  28  226  202 50% 2 334777 86874 70%
c i  0.19 60 81 0  28  228  203 50% 2 334777 86813 70%
c i  0.19 60 82 0  29  230  204 50% 2 334777 86688 70%
c i  0.26 60 64 0  50  317  282 50% 2 334777 86626 70%
c i  0.26 60 64 0  51  320  284 50% 2 334777 86617 70%
c i  0.26 60 63 0  51  321  284 50% 2 334777 86608 70%
c 
c  seconds  reductions  redundant  irredundant
c         MB    restarts       trail       variables
c          level   conflicts       glue         remaining
c 
c i  0.26 60 63 0  52  323  285 50% 2 334777 86591 70%
c i  0.31 60 55 0  77  416  369 48% 2 334777 83570 68%
c i  0.31 60 54 0  77  418  370 48% 2 334777 83531 67%
c i  0.31 60 54 0  77  422  372 48% 2 334777 83506 67%
c i  0.32 60 52 0  81  452  398 48% 2 334777 83498 67%
c i  0.36 60 47 0  94  515  456 48% 2 334777 83493 67%
c i  0.36 60 47 0  94  518  458 48% 2 334777 83388 67%
c i  0.36 60 47 0  95  519  458 48% 2 334777 83306 67%
c i  0.36 60 47 0  95  520  458 48% 2 334777 83276 67%
c i  0.43 60 42 0 134  697  618 47% 2 334777 83195 67%
c i  0.46 60 41 0 138  737  655 48% 2 334777 83185 67%
c i  0.46 60 41 0 138  738  655 48% 2 334777 83175 67%
c i  0.46 60 41 0 138  739  655 48% 2 334777 83141 67%
c i  0.46 60 41 0 139  741  656 48% 2 334777 83115 67%
c i  0.46 60 41 0 139  743  657 48% 2 334777 83107 67%
c i  0.46 60 41 0 140  744  657 48% 2 334777 83076 67%
c i  0.54 60 38 0 170  956  851 50% 3 334777 83031 67%
c i  0.54 60 38 0 170  961  855 50% 3 334777 82883 67%
c i  0.54 60 38 0 170  974  867 49% 3 334777 82882 67%
c }  0.55 60 37 0 176 1000  892 49% 3 334777 82882 67%
c 
c  seconds  reductions  redundant  irredundant
c         MB    restarts       trail       variables
c          level   conflicts       glue         remaining
c 
c [  0.55 60  0 0 176 1000  892  0% 0 334777 82882 67%
c O  0.56 60 125 0 176 1002  894 67% 2 334777 82882 67%
c i  0.62 60 139 0 176 1099  980 80% 8 334777 82877 67%
c i  0.69 60 130 0 176 1206 1060 79% 6 334777 82875 67%
c i  0.71 60 128 0 176 1237 1082 79% 5 334777 82746 67%
c i  0.76 60 110 0 176 1279 1121 75% 5 334777 82732 67%
c i  1.15 61 45 0 176 2033 1814 62% 7 334777 74655 60%
c i  1.17 61 44 0 177 2046 1820 62% 6 334777 71621 58%
c i  1.18 61 44 0 177 2052 1822 62% 6 334777 71538 58%
c i  1.18 61 44 0 177 2053 1822 62% 6 334777 71527 58%
c i  1.18 61 44 0 177 2054 1822 62% 6 334777 71481 58%
c i  1.18 61 44 0 177 2066 1830 62% 6 334777 65594 53%
c i  1.18 61 43 0 177 2074 1835 62% 6 334777 65588 53%
c ]  1.19 61 43 0 177 2094 1851 62% 6 334777 65262 53%
c 0  1.19 61 43 0 177 2094 1851 62% 6 334777 65262 53%
c 
c --- [ result ] -------------------------------------------------------------
c 
s UNSATISFIABLE
c 
c --- [ run-time profiling ] -------------------------------------------------
c 
c process time taken by individual solving procedures
c (percentage relative to process time for solving)
c 
c         1.14   99.99% search
c         0.64   56.45% stable
c         0.47   41.00% unstable
c         0.06    4.89% parse
c         0.03    2.53% lucky
c         0.00    0.00% simplify
c   =================================
c         1.14   95.31% solve
c 
c last line shows process time for solving
c (percentage relative to total process time)
c 
c --- [ statistics ] ---------------------------------------------------------
c 
c chronological:               970        46.32 %  of conflicts
c conflicts:                  2094      1840.40    per second
c decisions:                  9354      8221.17    per second
c fixed:                     58488        47.26 %  of all variables
c learned:                    2030        96.94 %  per conflict
c learned_lits:              78195       100.00 %  learned literals
c minimized:                     0         0.00 %  learned literals
c shrunken:                  15361        19.64 %  learned literals
c minishrunken:              13638        17.44 %  learned literals
c otfs:                         15         0.72 %  of conflict
c propagations:           12024123        10.57 M  per second
c rephased:                      1      2094.00    interval
c restarts:                    177        11.83    interval
c stabilizing:                   1        52.24 %  of conflicts
c subsumed:                    129         0.04 %  of all clauses
c strengthened:                 14         0.00 %  of all clauses
c 
c seconds are measured in process time for solving
c 
c --- [ resources ] ----------------------------------------------------------
c 
c total process time since initialization:         1.19    seconds
c total real time since initialization:            1.20    seconds
c maximum resident set size of process:           59.46    MB
c 
c --- [ shutting down ] ------------------------------------------------------
c 
c exit 20
